
Welcome to IBM(R) ILOG(R) CPLEX(R) Interactive Optimizer 22.1.1.0
  with Simplex, Mixed Integer & Barrier Optimizers
5725-A06 5725-A29 5724-Y48 5724-Y49 5724-Y54 5724-Y55 5655-Y21
Copyright IBM Corp. 1988, 2022.  All Rights Reserved.

Type 'help' for a list of available commands.
Type 'help' followed by a command name for more
information on commands.

CPLEX> Selected objective sense:  MINIMIZE
Selected objective  name:  00000000
Selected RHS        name:  RHS1
Selected bound      name:  BOUND
Problem 'ee.mps' read.
Read time = 0.03 sec. (3.17 ticks)
CPLEX> New value for time limit in seconds: 7200
CPLEX> New value for parallel optimization mode: -1
CPLEX> New value for default parallel thread count: 40
CPLEX> New value for mixed integer optimality gap tolerance: 1e-13
CPLEX> Version identifier: 22.1.1.0 | 2022-11-28 | 9160aff4d
CPXPARAM_Threads                                 40
CPXPARAM_Parallel                                -1
CPXPARAM_TimeLimit                               7200
CPXPARAM_MIP_Tolerances_MIPGap                   1e-13
Found incumbent of value 0.000000 after 0.00 sec. (0.31 ticks)
Tried aggregator 2 times.
MIP Presolve eliminated 274 rows and 3331 columns.
MIP Presolve modified 6105 coefficients.
Aggregator did 873 substitutions.
Reduced MIP has 3382 rows, 7061 columns, and 26173 nonzeros.
Reduced MIP has 7061 binaries, 0 generals, 0 SOSs, and 0 indicators.
Presolve time = 0.07 sec. (70.40 ticks)
Probing fixed 24 vars, tightened 0 bounds.
Probing time = 0.06 sec. (28.75 ticks)
Tried aggregator 2 times.
Detecting symmetries...
MIP Presolve eliminated 28 rows and 46 columns.
Aggregator did 2 substitutions.
Reduced MIP has 3352 rows, 7007 columns, and 25999 nonzeros.
Reduced MIP has 7007 binaries, 0 generals, 0 SOSs, and 0 indicators.
Presolve time = 0.04 sec. (46.94 ticks)
Probing time = 0.02 sec. (5.07 ticks)
Clique table members: 16815.
MIP emphasis: balance optimality and feasibility.
MIP search method: dynamic search.
Parallel mode: opportunistic, using up to 40 threads.
Root relaxation solution time = 0.11 sec. (100.22 ticks)

        Nodes                                         Cuts/
   Node  Left     Objective  IInf  Best Integer    Best Bound    ItCnt     Gap

*     0+    0                            0.0000  -1.54000e+13              --- 
*     0+    0                      -6.00000e+12  -1.54000e+13           156.67%
*     0+    0                      -7.20000e+12  -1.54000e+13           113.89%
*     0+    0                      -8.40000e+12  -1.54000e+13            83.33%
      0     0  -1.53900e+13    64  -8.40000e+12  -1.53900e+13     2129   83.21%
*     0+    0                      -1.29900e+13  -1.53900e+13            18.48%
*     0+    0                      -1.53900e+13  -1.53900e+13             0.00%
      0     0  -1.53900e+13   167  -1.53900e+13      Cuts: 57     3374    0.00%
*     0+    0                      -1.53900e+13  -1.53900e+13             0.00%
      0     0  -1.53900e+13   219  -1.53900e+13      Cuts: 87     3953    0.00%
*     0+    0                      -1.53900e+13  -1.53900e+13             0.00%
      0    12        cutoff        -1.53900e+13  -1.53900e+13    10987    0.00%
Elapsed time = 2.78 sec. (1411.60 ticks, tree = 0.02 MB, solutions = 11)
    101    38        cutoff        -1.53900e+13  -1.53900e+13    37371    0.00%
    311    63  -1.53900e+13   106  -1.53900e+13  -1.53900e+13    84720    0.00%
    830    70  -1.53900e+13    88  -1.53900e+13  -1.53900e+13    99897    0.00%
   1762    79  -1.53900e+13    48  -1.53900e+13  -1.53900e+13   107287    0.00%
   2572    59  -1.53900e+13   293  -1.53900e+13  -1.53900e+13    86296    0.00%
   3146   197        cutoff        -1.53900e+13  -1.53900e+13   161168    0.00%
   3508   207        cutoff        -1.53900e+13  -1.53900e+13   162872    0.00%
   3786   406  -1.53900e+13   137  -1.53900e+13  -1.53900e+13   235913    0.00%
   4133   914  -1.53900e+13   139  -1.53900e+13  -1.53900e+13   431572    0.00%
   7231  1696  -1.53900e+13    89  -1.53900e+13  -1.53900e+13   559775    0.00%
Elapsed time = 9.14 sec. (4515.68 ticks, tree = 25.90 MB, solutions = 17)
  10573  1921  -1.53900e+13    34  -1.53900e+13  -1.53900e+13   588259    0.00%
  13136  3325  -1.53900e+13   180  -1.53900e+13  -1.53900e+13   774872    0.00%
  14333  3984        cutoff        -1.53900e+13  -1.53900e+13   887850    0.00%

Performing restart 1

Repeating presolve.
Tried aggregator 1 time.
MIP Presolve eliminated 17 rows and 14 columns.
MIP Presolve modified 1693 coefficients.
Reduced MIP has 3275 rows, 6993 columns, and 25523 nonzeros.
Reduced MIP has 6993 binaries, 0 generals, 0 SOSs, and 0 indicators.
Presolve time = 0.04 sec. (25.02 ticks)
Tried aggregator 1 time.
Reduced MIP has 3275 rows, 6993 columns, and 25523 nonzeros.
Reduced MIP has 6993 binaries, 0 generals, 0 SOSs, and 0 indicators.
Presolve time = 0.03 sec. (19.96 ticks)
Represolve time = 0.19 sec. (98.80 ticks)
  14413     0  -1.53900e+13   339  -1.53900e+13      Cuts: 30  1117985    0.00%
  14413     0  -1.53900e+13   382  -1.53900e+13      Cuts: 36  1118812    0.00%
  14413     0  -1.53900e+13   379  -1.53900e+13      Cuts: 52  1119705    0.00%
  14413     0  -1.53900e+13   451  -1.53900e+13      Cuts: 34  1119971    0.00%
  14413     0  -1.53900e+13   476  -1.53900e+13      Cuts: 38  1120246    0.00%
  14413    29        cutoff        -1.53900e+13  -1.53900e+13  1150504    0.00%
  15790    64        cutoff        -1.53900e+13  -1.53900e+13  1156871    0.00%
  17892    66  -1.53900e+13   167  -1.53900e+13  -1.53900e+13  1214272    0.00%
  20263   175  -1.53900e+13    90  -1.53900e+13  -1.53900e+13  1256203    0.00%
  23643    68        cutoff        -1.53900e+13  -1.53900e+13  1491455    0.00%
  26407    74        cutoff        -1.53900e+13  -1.53900e+13  1478456    0.00%
  27999    53        cutoff        -1.53900e+13  -1.53900e+13  1548166    0.00%
Elapsed time = 26.28 sec. (17265.04 ticks, tree = 0.22 MB, solutions = 17)

GUB cover cuts applied:  13
Clique cuts applied:  7
Cover cuts applied:  506
Mixed integer rounding cuts applied:  15
Zero-half cuts applied:  57
Lift and project cuts applied:  1
Gomory fractional cuts applied:  29

Root node processing (before b&c):
  Real time             =    1.53 sec. (1401.63 ticks)
Parallel b&c, 40 threads:
  Real time             =   24.79 sec. (16612.62 ticks)
  Sync time (average)   =    5.45 sec.
  Wait time (average)   =    0.08 sec.
                          ------------
Total (root+branch&cut) =   26.32 sec. (18014.25 ticks)

Solution pool: 17 solutions saved.

MIP - Integer optimal solution:  Objective = -1.5389999389e+13
Solution time =   26.47 sec.  Iterations = 1573102  Nodes = 28297
Deterministic time = 18014.28 ticks  (680.46 ticks/sec)

CPLEX> Solution 'p18' written to file 'ee.sol'.
CPLEX> 